NAME : gr48.12633.tour
COMMENT : Cost = 0_12633
COMMENT : Found by LKH [Keld Helsgaun] Thu Nov 16 16:23:54 2017
TYPE : TOUR
DIMENSION : 67
TOUR_SECTION
1
13
49
7
50
48
51
16
52
11
53
28
54
44
55
36
56
46
57
41
58
6
59
18
60
34
61
23
62
26
63
22
64
47
65
14
66
25
3
19
4
30
43
45
38
20
2
35
42
39
40
37
24
15
10
12
31
5
33
8
32
27
17
21
9
67
29
-1
EOF
